solutions/best/exact/exact_040.sol
9
7
3
1
3
3
29
6
12
3
12
7
11
21
17
14
19
16
17
29
18
23
24
0
21
22
24
26
27
13
33
30
19
32
33
34
23
39
36
38
39
